<?xml version = "1.0" encoding="UTF-8" standalone="yes"?>
<CPLEXSolution version="1.2">
 <header
   problemName="problem.clp"
   solutionName="incumbent"
   solutionIndex="-1"
   objectiveValue="2"
   solutionTypeValue="3"
   solutionTypeString="primal"
   solutionStatusValue="101"
   solutionStatusString="integer optimal solution"
   solutionMethodString="mip"
   primalFeasible="1"
   dualFeasible="1"
   MIPNodes="0"
   MIPIterations="0"
   writeLevel="1"/>
 <quality
   epInt="1e-05"
   epRHS="1e-06"
   maxIntInfeas="0"
   maxPrimalInfeas="0"
   maxX="1"
   maxSlack="0"/>
 <linearConstraints>
  <constraint name="c1" index="0" slack="0"/>
  <constraint name="c2" index="1" slack="0"/>
  <constraint name="c3" index="2" slack="0"/>
  <constraint name="c4" index="3" slack="0"/>
  <constraint name="c5" index="4" slack="0"/>
  <constraint name="c6" index="5" slack="0"/>
  <constraint name="c7" index="6" slack="0"/>
  <constraint name="c8" index="7" slack="0"/>
  <constraint name="c9" index="8" slack="0"/>
  <constraint name="c10" index="9" slack="0"/>
  <constraint name="c11" index="10" slack="0"/>
  <constraint name="c12" index="11" slack="0"/>
  <constraint name="c13" index="12" slack="0"/>
  <constraint name="c14" index="13" slack="0"/>
  <constraint name="c15" index="14" slack="0"/>
  <constraint name="c16" index="15" slack="0"/>
  <constraint name="c17" index="16" slack="0"/>
  <constraint name="c18" index="17" slack="0"/>
  <constraint name="c19" index="18" slack="0"/>
  <constraint name="c20" index="19" slack="0"/>
  <constraint name="c21" index="20" slack="0"/>
  <constraint name="c22" index="21" slack="0"/>
  <constraint name="c23" index="22" slack="0"/>
  <constraint name="c24" index="23" slack="0"/>
  <constraint name="c25" index="24" slack="0"/>
  <constraint name="c26" index="25" slack="0"/>
  <constraint name="c27" index="26" slack="0"/>
  <constraint name="c28" index="27" slack="0"/>
  <constraint name="c29" index="28" slack="0"/>
  <constraint name="c30" index="29" slack="0"/>
  <constraint name="c31" index="30" slack="0"/>
  <constraint name="c32" index="31" slack="0"/>
  <constraint name="c33" index="32" slack="0"/>
  <constraint name="c34" index="33" slack="0"/>
  <constraint name="c35" index="34" slack="0"/>
  <constraint name="c36" index="35" slack="0"/>
  <constraint name="c37" index="36" slack="0"/>
  <constraint name="c38" index="37" slack="0"/>
  <constraint name="c39" index="38" slack="0"/>
  <constraint name="c40" index="39" slack="0"/>
  <constraint name="c41" index="40" slack="0"/>
  <constraint name="c42" index="41" slack="0"/>
  <constraint name="c43" index="42" slack="0"/>
  <constraint name="c44" index="43" slack="0"/>
  <constraint name="c45" index="44" slack="0"/>
  <constraint name="c46" index="45" slack="0"/>
  <constraint name="c47" index="46" slack="0"/>
  <constraint name="c48" index="47" slack="0"/>
  <constraint name="c49" index="48" slack="0"/>
  <constraint name="c50" index="49" slack="0"/>
  <constraint name="c51" index="50" slack="0"/>
  <constraint name="c52" index="51" slack="0"/>
  <constraint name="c53" index="52" slack="0"/>
  <constraint name="c54" index="53" slack="0"/>
  <constraint name="c55" index="54" slack="0"/>
  <constraint name="c56" index="55" slack="0"/>
  <constraint name="c57" index="56" slack="0"/>
  <constraint name="c58" index="57" slack="0"/>
  <constraint name="c59" index="58" slack="0"/>
  <constraint name="c60" index="59" slack="0"/>
  <constraint name="c61" index="60" slack="0"/>
  <constraint name="c62" index="61" slack="0"/>
  <constraint name="c63" index="62" slack="0"/>
  <constraint name="c64" index="63" slack="0"/>
  <constraint name="c65" index="64" slack="0"/>
  <constraint name="c66" index="65" slack="0"/>
  <constraint name="c67" index="66" slack="0"/>
  <constraint name="c68" index="67" slack="0"/>
  <constraint name="c69" index="68" slack="0"/>
  <constraint name="c70" index="69" slack="0"/>
  <constraint name="c71" index="70" slack="0"/>
  <constraint name="c72" index="71" slack="0"/>
  <constraint name="c73" index="72" slack="0"/>
  <constraint name="c74" index="73" slack="0"/>
  <constraint name="c75" index="74" slack="0"/>
  <constraint name="c76" index="75" slack="0"/>
  <constraint name="c77" index="76" slack="0"/>
  <constraint name="c78" index="77" slack="0"/>
  <constraint name="c79" index="78" slack="0"/>
  <constraint name="c80" index="79" slack="0"/>
  <constraint name="c81" index="80" slack="0"/>
  <constraint name="c82" index="81" slack="0"/>
  <constraint name="c83" index="82" slack="0"/>
  <constraint name="c84" index="83" slack="0"/>
  <constraint name="c85" index="84" slack="0"/>
  <constraint name="c86" index="85" slack="0"/>
  <constraint name="c87" index="86" slack="0"/>
  <constraint name="c88" index="87" slack="0"/>
  <constraint name="c89" index="88" slack="0"/>
  <constraint name="c90" index="89" slack="0"/>
  <constraint name="c91" index="90" slack="0"/>
  <constraint name="c92" index="91" slack="0"/>
  <constraint name="c93" index="92" slack="0"/>
  <constraint name="c94" index="93" slack="0"/>
  <constraint name="c95" index="94" slack="0"/>
  <constraint name="c96" index="95" slack="0"/>
  <constraint name="c97" index="96" slack="0"/>
  <constraint name="c98" index="97" slack="0"/>
  <constraint name="c99" index="98" slack="0"/>
  <constraint name="c100" index="99" slack="0"/>
  <constraint name="c101" index="100" slack="0"/>
  <constraint name="c102" index="101" slack="0"/>
  <constraint name="c103" index="102" slack="0"/>
  <constraint name="c104" index="103" slack="0"/>
  <constraint name="c105" index="104" slack="0"/>
  <constraint name="c106" index="105" slack="0"/>
  <constraint name="c107" index="106" slack="0"/>
  <constraint name="c108" index="107" slack="0"/>
  <constraint name="c109" index="108" slack="0"/>
  <constraint name="c110" index="109" slack="0"/>
  <constraint name="c111" index="110" slack="0"/>
  <constraint name="c112" index="111" slack="0"/>
  <constraint name="c113" index="112" slack="0"/>
  <constraint name="c114" index="113" slack="0"/>
  <constraint name="c115" index="114" slack="0"/>
  <constraint name="c116" index="115" slack="0"/>
  <constraint name="c117" index="116" slack="0"/>
  <constraint name="c118" index="117" slack="0"/>
  <constraint name="c119" index="118" slack="0"/>
  <constraint name="c120" index="119" slack="0"/>
  <constraint name="c121" index="120" slack="0"/>
  <constraint name="c122" index="121" slack="0"/>
  <constraint name="c123" index="122" slack="0"/>
  <constraint name="c124" index="123" slack="0"/>
  <constraint name="c125" index="124" slack="0"/>
  <constraint name="c126" index="125" slack="0"/>
  <constraint name="c127" index="126" slack="0"/>
  <constraint name="c128" index="127" slack="0"/>
  <constraint name="c129" index="128" slack="0"/>
  <constraint name="c130" index="129" slack="0"/>
  <constraint name="c131" index="130" slack="0"/>
  <constraint name="c132" index="131" slack="0"/>
  <constraint name="c133" index="132" slack="0"/>
  <constraint name="c134" index="133" slack="0"/>
  <constraint name="c135" index="134" slack="0"/>
 </linearConstraints>
 <variables>
  <variable name="drive_truckdriver1s1s0truck1" index="0" value="0"/>
  <variable name="load_truckdriver1truck2package4s0" index="1" value="0"/>
  <variable name="drive_truckdriver1s2s1truck2" index="2" value="0"/>
  <variable name="drive_truckdriver1s1s2truck1" index="3" value="0"/>
  <variable name="load_truckdriver1truck2package1s1" index="4" value="0"/>
  <variable name="board_truckdriver1truck2s1" index="5" value="0"/>
  <variable name="unload_truckdriver1truck2package3s0" index="6" value="0"/>
  <variable name="load_truckdriver1truck1package1s0" index="7" value="0"/>
  <variable name="unload_truckdriver1truck1package1s1" index="8" value="0"/>
  <variable name="load_truckdriver1truck2package4s1" index="9" value="0"/>
  <variable name="board_truckdriver1truck1s0" index="10" value="0"/>
  <variable name="drive_truckdriver1s2s1truck1" index="11" value="0"/>
  <variable name="unload_truckdriver1truck1package4s0" index="12" value="0"/>
  <variable name="drive_truckdriver1s0s1truck1" index="13" value="0"/>
  <variable name="drive_truckdriver1s0s1truck2" index="14" value="0"/>
  <variable name="load_truckdriver1truck2package4s2" index="15" value="0"/>
  <variable name="load_truckdriver1truck1package4s1" index="16" value="0"/>
  <variable name="load_truckdriver1truck2package3s2" index="17" value="0"/>
  <variable name="load_truckdriver1truck1package1s2" index="18" value="0"/>
  <variable name="unload_truckdriver1truck2package4s0" index="19" value="0"/>
  <variable name="unload_truckdriver1truck2package1s0" index="20" value="0"/>
  <variable name="disembark_truckdriver1truck1s1" index="21" value="1"/>
  <variable name="load_truckdriver1truck2package1s2" index="22" value="0"/>
  <variable name="unload_truckdriver1truck2package3s1" index="23" value="0"/>
  <variable name="unload_truckdriver1truck1package1s0" index="24" value="0"/>
  <variable name="load_truckdriver1truck2package3s0" index="25" value="0"/>
  <variable name="unload_truckdriver1truck1package4s1" index="26" value="0"/>
  <variable name="unload_truckdriver1truck2package2s2" index="27" value="0"/>
  <variable name="unload_truckdriver1truck1package3s0" index="28" value="0"/>
  <variable name="load_truckdriver1truck1package2s1" index="29" value="0"/>
  <variable name="unload_truckdriver1truck1package4s2" index="30" value="0"/>
  <variable name="unload_truckdriver1truck2package2s0" index="31" value="0"/>
  <variable name="board_truckdriver1truck2s0" index="32" value="0"/>
  <variable name="unload_truckdriver1truck2package2s1" index="33" value="0"/>
  <variable name="drive_truckdriver1s1s0truck2" index="34" value="0"/>
  <variable name="drive_truckdriver1s2s0truck2" index="35" value="0"/>
  <variable name="board_truckdriver1truck1s2" index="36" value="0"/>
  <variable name="board_truckdriver1truck1s1" index="37" value="1"/>
  <variable name="board_truckdriver1truck2s2" index="38" value="0"/>
  <variable name="load_truckdriver1truck2package2s2" index="39" value="0"/>
  <variable name="unload_truckdriver1truck2package1s2" index="40" value="0"/>
  <variable name="disembark_truckdriver1truck2s1" index="41" value="0"/>
  <variable name="load_truckdriver1truck1package1s1" index="42" value="0"/>
  <variable name="disembark_truckdriver1truck2s2" index="43" value="0"/>
  <variable name="unload_truckdriver1truck1package2s0" index="44" value="0"/>
  <variable name="unload_truckdriver1truck1package3s1" index="45" value="0"/>
  <variable name="unload_truckdriver1truck2package4s2" index="46" value="0"/>
  <variable name="unload_truckdriver1truck2package4s1" index="47" value="0"/>
  <variable name="load_truckdriver1truck1package4s0" index="48" value="0"/>
  <variable name="unload_truckdriver1truck1package2s2" index="49" value="0"/>
  <variable name="unload_truckdriver1truck2package3s2" index="50" value="0"/>
  <variable name="unload_truckdriver1truck1package2s1" index="51" value="0"/>
  <variable name="disembark_truckdriver1truck2s0" index="52" value="0"/>
  <variable name="drive_truckdriver1s2s0truck1" index="53" value="0"/>
  <variable name="load_truckdriver1truck1package4s2" index="54" value="0"/>
  <variable name="drive_truckdriver1s0s2truck1" index="55" value="0"/>
  <variable name="unload_truckdriver1truck1package1s2" index="56" value="0"/>
  <variable name="load_truckdriver1truck2package2s0" index="57" value="0"/>
  <variable name="load_truckdriver1truck2package1s0" index="58" value="0"/>
  <variable name="load_truckdriver1truck2package3s1" index="59" value="0"/>
  <variable name="load_truckdriver1truck1package3s0" index="60" value="0"/>
  <variable name="unload_truckdriver1truck1package3s2" index="61" value="0"/>
  <variable name="load_truckdriver1truck2package2s1" index="62" value="0"/>
  <variable name="unload_truckdriver1truck2package1s1" index="63" value="0"/>
  <variable name="disembark_truckdriver1truck1s0" index="64" value="0"/>
  <variable name="drive_truckdriver1s0s2truck2" index="65" value="0"/>
  <variable name="drive_truckdriver1s1s2truck2" index="66" value="0"/>
  <variable name="load_truckdriver1truck1package3s2" index="67" value="0"/>
  <variable name="load_truckdriver1truck1package2s0" index="68" value="0"/>
  <variable name="load_truckdriver1truck1package2s2" index="69" value="0"/>
  <variable name="load_truckdriver1truck1package3s1" index="70" value="0"/>
  <variable name="disembark_truckdriver1truck1s2" index="71" value="0"/>
 </variables>
</CPLEXSolution>
